\ This file was automatically generated by Zimpl
\ set indice := {1, 2, 3};
\ set tamanho := {1, 2, 3};
\ set filial := {1, 2, 3};
\ set matrizTamanhoFilial := tamanho * filial;
\ param lucroUnitarioEmReais[tamanho] := <1> 140, <2> 120, <3> 100;
\ param capacidadeProducao[filial] := <1> 750, <2> 900, <3> 450;
\ param espacoArmazenamentoEmMetros2[filial] := <1> 1170, <2> 1080, <3> 450;
\ param tamanhoUnitarioPecaEmMetros2[tamanho] := <1> 1.8, <2> 1.35, <3> 1.08;
\ param previsaoVenda[tamanho] := <1> 900, <2> 1200, <3> 750;
\ param somaCapacidadeProducao := sum <f> in filial : capacidadeProducao[f];
\ param proporcaoProducaoEmFiliais[filial] :=      <1> capacidadeProducao[1]/somaCapacidadeProducao,     <2> capacidadeProducao
\ [2]/somaCapacidadeProducao,      <3> capacidadeProducao[3]/somaCapacidadeProducao;
\ var quantFabricacao[matrizTamanhoFilial] >= 0;
\ maximize lucro: sum<f, t> in matrizTamanhoFilial : lucroUnitarioEmReais[t] * quantFabricacao[f, t];
\ subto limiteProducao:      forall <f> in filial do         sum <t> in tamanho : quantFabricacao[f, t] <= capacidadeProducao[f
\ ];
\ subto limiteArmazenamento:     forall <f> in filial do         sum <t> in tamanho : quantFabricacao[f, t] * tamanhoUnitarioPe
\ caEmMetros2[t] <= espacoArmazenamentoEmMetros2[f];
\ subto limiteVenda:     forall <f> in filial do         sum <t> in tamanho : quantFabricacao[f, t] <= previsaoVenda[f];
\Problem name: .\file.zpl
Maximize
 lucro:  +140 quantFabricaca@0 +120 quantFabricaca@1 +100 quantFabricaca@2 +140 quantFabricaca@3 +120 quantFabricaca@4 +100 quantFabricaca@5
  +140 quantFabricaca@6 +120 quantFabricaca@7 +100 quantFabricaca@8
Subject to
 limiteProducao_1:
  + quantFabricaca@2 + quantFabricaca@1 + quantFabricaca@0 <= 750
 limiteProducao_2:
  + quantFabricaca@5 + quantFabricaca@4 + quantFabricaca@3 <= 900
 limiteProducao_3:
  + quantFabricaca@8 + quantFabricaca@7 + quantFabricaca@6 <= 450
 limiteArmazena@3:
  +1.08 quantFabricaca@2 +1.35 quantFabricaca@1 +1.8 quantFabricaca@0 <= 1170
 limiteArmazena@4:
  +1.08 quantFabricaca@5 +1.35 quantFabricaca@4 +1.8 quantFabricaca@3 <= 1080
 limiteArmazena@5:
  +1.08 quantFabricaca@8 +1.35 quantFabricaca@7 +1.8 quantFabricaca@6 <= 450
 limiteVenda_1:
  + quantFabricaca@2 + quantFabricaca@1 + quantFabricaca@0 <= 900
 limiteVenda_2:
  + quantFabricaca@5 + quantFabricaca@4 + quantFabricaca@3 <= 1200
 limiteVenda_3:
  + quantFabricaca@8 + quantFabricaca@7 + quantFabricaca@6 <= 750
Bounds
 0 <= quantFabricaca@0 <= +inf
 0 <= quantFabricaca@1 <= +inf
 0 <= quantFabricaca@2 <= +inf
 0 <= quantFabricaca@3 <= +inf
 0 <= quantFabricaca@4 <= +inf
 0 <= quantFabricaca@5 <= +inf
 0 <= quantFabricaca@6 <= +inf
 0 <= quantFabricaca@7 <= +inf
 0 <= quantFabricaca@8 <= +inf
End
